n_res = 4;
rc = [ 23, 36, 23, 21 ];
n_tasks = 30;
d = [ 10, 8, 4, 10, 7, 1, 3, 2, 5, 6, 9, 7, 5, 3, 3, 4, 5, 10, 9, 3, 1, 6, 1, 5, 1, 3, 7, 9, 10, 2 ];
rr = [| 4, 1, 3, 1, 10, 7, 2, 9, 4, 1, 1, 7, 1, 1, 4, 6, 2, 1, 10, 7, 4, 2, 7, 0, 5, 10, 5, 6, 3, 9
      | 6, 9, 5, 4, 0, 0, 2, 0, 1, 3, 5, 0, 10, 1, 10, 10, 8, 0, 8, 0, 5, 4, 7, 6, 8, 0, 5, 4, 7, 10
      | 6, 0, 4, 3, 3, 0, 0, 0, 9, 7, 0, 4, 10, 0, 6, 8, 2, 0, 0, 6, 2, 7, 6, 7, 0, 9, 7, 0, 10, 7
      | 3, 5, 0, 2, 5, 10, 0, 3, 5, 4, 3, 0, 8, 3, 0, 0, 8, 3, 4, 6, 0, 0, 0, 0, 0, 1, 3, 3, 0, 8 |];
suc = [ { 2 }, 
        { 1 }, 
        { 4 }, 
        { 3 }, 
        { 6 }, 
        { 5 }, 
        { 8 }, 
        { 7 }, 
        { 10 }, 
        { 9 }, 
        { 12 }, 
        { 11 }, 
        { 14 }, 
        { 13 }, 
        { 16 }, 
        { 15 }, 
        { 18 }, 
        { 17 }, 
        { 20 }, 
        { 19 }, 
        { 22 }, 
        { 21 }, 
        { 24 }, 
        { 23 }, 
        { 26 }, 
        { 25 }, 
        { 28 }, 
        { 27 }, 
        { 30 }, 
        { 29 }]; 
